Test: battleship-12-23-sat.cnf
Options: -no-inverting-opt
WARNING: for repeatability, setting FPU to use double precision
============================[ Problem Statistics ]=============================
|                                                                             |
|  Number of symmetries:           18                                         |
|  Number of invertingSyms:         0                                         |
|  Number of variables:           276                                         |
|  Number of clauses:            1662                                         |
|  Parse time:                   0.00 s                                       |
|                                                                             |
============================[ Search Statistics ]==============================
| Conflicts |          ORIGINAL         |          LEARNT          | Progress |
|           |    Vars  Clauses Literals |    Limit  Clauses Lit/Cl |          |
===============================================================================
|       100 |     276     1662     6348 |      609      100     92 |  0.001 % |
|       250 |     276     1662     6348 |      670      280     84 |  0.001 % |
===============================================================================
restarts              : 3
conflicts             : 340            (16999 /sec)
symconflicts          : 10             (500 /sec)
decisions             : 1034           (0.00 % random) (51697 /sec)
propagations          : 6437           (321834 /sec)
sympropagations       : 51             (2550 /sec)
conflict literals     : 29863          (0.40 % deleted)
literals     : 29863          (0.40 % deleted)

HEURISTIC USAGES
random                : 0           
activity w/ lookahead : 0           
activity no lookahead : 0           
original sp           : 1033        
sym count             : 0           

Memory used           : 6.00 MB
CPU time              : 0.020001 s

SATISFIABLE
